c WARNING: for repeatability, setting FPU to use double precision
d VARIABLES            200964       
d CONSTRAINTS          918879       
c ============================[ Problem Statistics ]=============================
c |                                                                             |
c |  Number of variables:        200964                                         |
c |  Number of clauses:          918879                                         |
c |  Parse time:                   0.15 s                                       |
c |                                                                             |
c ============================[ Search Statistics ]==============================
c | Conflicts |          ORIGINAL         |          LEARNT          | Progress |
c |           |    Vars  Clauses Literals |    Limit  Clauses Lit/Cl |          |
c ===============================================================================
c |       100 |  177418   851791  2059562 |   312323      100      7 | 11.717 % |
c |       250 |  177418   851791  2059562 |   343555      250      9 | 11.717 % |
c |       475 |  177418   851791  2059562 |   377911      475     24 | 11.717 % |
c |       812 |  177418   851791  2059562 |   415702      812     28 | 11.717 % |
c |      1318 |  177418   851791  2059562 |   457272     1318     90 | 11.717 % |
c |      2077 |  177418   851791  2059562 |   502999     2077     82 | 11.717 % |
c |      3216 |  177418   851791  2059562 |   553299     3216     89 | 11.717 % |
c |      4924 |  177418   851791  2059562 |   608629     4924     80 | 11.717 % |
c |      7486 |  177418   851791  2059562 |   669492     7486     93 | 11.717 % |
c |     11330 |  177418   851791  2059562 |   736442    11330     85 | 11.717 % |
c |     17096 |  177418   851791  2059562 |   810086    17096     99 | 11.717 % |
c |     25745 |  177418   851791  2059562 |   891095    25745    108 | 11.717 % |
c |     38719 |  177418   851791  2059562 |   980204    38719    115 | 11.717 % |
c |     58180 |  177418   851791  2059562 |  1078224    58180    109 | 11.717 % |
c |     87372 |  177418   851791  2059562 |  1186047    87372    115 | 11.717 % |
c |    131161 |  177418   851791  2059562 |  1304652   131161    122 | 11.717 % |
c |    196845 |  177418   851791  2059562 |  1435117   196845    121 | 11.717 % |
c |    295371 |  177418   851791  2059562 |  1578629   295371    124 | 11.717 % |
c |    443160 |  177418   851791  2059562 |  1736492   443160    129 | 11.717 % |
c |    664843 |  177418   851791  2059562 |  1910141   664843    161 | 11.717 % |
c |    997368 |  177384   851623  2059158 |  2101155   997363    166 | 11.733 % |
c |   1496156 |  177350   851455  2058754 |  2311270  1496148    160 | 11.750 % |
c ===============================================================================
c restarts              : 3625
c conflicts             : 1881251        (1055 /sec)
c decisions             : 5022920        (0.00 % random) (2818 /sec)
c propagations          : 4790999454     (2687877 /sec)
c conflict literals     : 307604040      (30.24 % deleted)
d RESTARTS             3625
d FAILURES             1881251      
d NODES                5022920      
d BACKTRACKS           5022920      
d PROPAGATIONS         4790999454   
d NOGOODSIZE           163.51 
d MEMORY               1627.00 
d TIME                 1782.45 

s UNKNOWN
